164
129
232
214
132
174
132
145
238
116
122
259
102
192
359
258
183
89
97
251
414
224
206
129
348
121
216
154
120
144
120
121
213
131
202
296
270
122
204
152
340
274
281
127
353
210
86
115
118
134
310
131
111
167
476
137
95
107
237
320
244
245
362
193
159
90
240
276
273
150
188
141
186
128
200
240
144
290
153
166
417
285
183
172
197
241
190
162
270
165
157
149
86
202
148
91
118
206
99
188
